Optimal - objective value 740.00000000
      2 x_0_2                    1                       0
     12 x_1_5                    1                       0
     20 x_2_6                    1                       0
     22 x_3_1                    1                       0
     32 x_4_4                    1                       0
     35 x_5_0                    1                       0
     45 x_6_3                    1                       0
    125 y_0_2_1_5                1                     106
    132 y_0_2_2_6                1                     110
    134 y_0_2_3_1                1                     110
    142 y_0_2_4_4                1                      73
    145 y_0_2_5_0                1                      60
    153 y_0_2_6_3                1                      97
    456 y_1_5_2_6                1                      10
    458 y_1_5_3_1                1                      10
    467 y_1_5_4_4                1                      10
    469 y_1_5_5_0                1                      12
    478 y_1_5_6_3                1                      10
    656 y_2_6_3_1                1                       4
    665 y_2_6_4_4                1                      10
    667 y_2_6_5_0                1                       9
    676 y_2_6_6_3                1                      21
    700 y_3_1_4_4                1                      21
    703 y_3_1_5_0                1                       9
    711 y_3_1_6_3                1                       6
    853 y_4_4_5_0                1                      18
    862 y_4_4_6_3                1                      16
    891 y_5_0_6_3                1                      18
